2982
1016
2726
3780
2782
1448
2538
989
1948
2778
4089
2644
4363
3378
4134
3030
816
4025
3549
3324
1977
2593
2262
1328
1946
598
3193
3560
804
2130
3035
4240
530
4366
3243
1716
1455
2520
2769
985
492
3792
3380
1373
2206
3354
282
856
2690
1449
930
677
3837
2284
1881
1793
1039
4139
3736
2341
2418
2561
1868
147
1323
545
1090
604
3107
601
2830
1482
1871
2533
4380
3472
1229
2920
2438
2107
3548
1938
1025
3241
2413
2307
167
3673
4473
2366
1837
1495
2673
3055
1667
245
2568
1532
1931
3760
